RT is False
Default write of storage_offers_DA.csv just to have a file (but constraint should be inactive)
Reading model...
...model read.
creating competitive generators file...
...competitive generators recorded.
Loading data...
.. day-ahead data with real-time VRE data read.
Compiling instance...
...instance created.
Creating Offer Mitigation (model will solve as dispatch if TRUE)...
...storage offer mitigation file created
Converting model to MPEC...
...converted
NOTE: initial MIP solve with only storage competitive to get feasible solution
Solving...

Welcome to IBM(R) ILOG(R) CPLEX(R) Interactive Optimizer 12.9.0.0
  with Simplex, Mixed Integer & Barrier Optimizers
5725-A06 5725-A29 5724-Y48 5724-Y49 5724-Y54 5724-Y55 5655-Y21
Copyright IBM Corp. 1988, 2019.  All Rights Reserved.

Type 'help' for a list of available commands.
Type 'help' followed by a command name for more
information on commands.

CPLEX> Logfile 'cplex.log' closed.
Logfile 'C:\Users\llavin\Desktop\test919\logs\tmpl6wnljsp.cplex.log' open.
CPLEX> New value for parallel optimization mode: -1
CPLEX> New value for mixed integer optimality gap tolerance: 0.01
CPLEX> New value for integrality tolerance: 1e-09
CPLEX> New value for feasibility tolerance: 0.01
CPLEX> New value for deterministic time limit in ticks: 100000
CPLEX> Problem 'C:\Users\llavin\Desktop\test919\logs\tmpydko7ugm.pyomo.lp' read.
Read time = 0.22 sec. (13.86 ticks)
CPLEX> Problem name         : C:\Users\llavin\Desktop\test919\logs\tmpydko7ugm.pyomo.lp
Objective sense      : Maximize
Variables            :   53321  [Nneg: 1,  Box: 21806,  Free: 4416,
                                 Binary: 27098]
Objective nonzeros   :    8980
Linear constraints   :  122164  [Less: 40983,  Greater: 58612,  Equal: 22569]
  Nonzeros           :  288505
  RHS nonzeros       :   66982

Variables            : Min LB: -5000.000        Max UB: 1000000.       
Objective nonzeros   : Min   : 0.07500000       Max   : 731.8583       
Linear constraints   :
  Nonzeros           : Min   : 0.07500000       Max   : 1000000.       
  RHS nonzeros       : Min   : 0.07500000       Max   : 1000000.       
CPLEX> CPXPARAM_Parallel                                -1
CPXPARAM_Simplex_Tolerances_Feasibility          0.01
CPXPARAM_DetTimeLimit                            100000
CPXPARAM_MIP_Tolerances_MIPGap                   0.01
CPXPARAM_MIP_Tolerances_Integrality              1.0000000000000001e-09
Tried aggregator 3 times.
MIP Presolve eliminated 88113 rows and 18969 columns.
MIP Presolve added 3376 rows and 0 columns.
MIP Presolve modified 24476 coefficients.
Aggregator did 12846 substitutions.
Reduced MIP has 24581 rows, 20950 columns, and 68870 nonzeros.
Reduced MIP has 8281 binaries, 0 generals, 0 SOSs, and 0 indicators.
Presolve time = 0.30 sec. (171.43 ticks)
Probing fixed 434 vars, tightened 2916 bounds.
Probing time = 1.28 sec. (921.94 ticks)
Tried aggregator 2 times.
MIP Presolve eliminated 967 rows and 870 columns.
MIP Presolve modified 2190 coefficients.
Aggregator did 59 substitutions.
Reduced MIP has 23555 rows, 20021 columns, and 65879 nonzeros.
Reduced MIP has 7847 binaries, 0 generals, 0 SOSs, and 0 indicators.
Presolve time = 0.11 sec. (67.02 ticks)
Probing fixed 0 vars, tightened 1 bounds.
Probing time = 0.03 sec. (19.90 ticks)
Clique table members: 6456.
MIP emphasis: balance optimality and feasibility.
MIP search method: dynamic search.
Parallel mode: opportunistic, using up to 32 threads.
Root relaxation solution time = 0.50 sec. (598.17 ticks)

        Nodes                                         Cuts/
   Node  Left     Objective  IInf  Best Integer    Best Bound    ItCnt     Gap

      0     0      -19.7208   772                    -19.7208     7245         
      0     0      -19.7208     7                     Cuts: 4     7247         
      0     0      -19.7208     5                    Cuts: 10     7253         
      0     0      -19.7208     2                 Flowcuts: 2     7254         
      0    17    infeasible                           Cuts: 4     7705         
Elapsed time = 7.83 sec. (4516.87 ticks, tree = 0.02 MB, solutions = 0)
    481   134   -17821.7258     8                    -74.8411    18951         
   1018   362    infeasible                          -74.8411    40706         
   1438   420   -19778.1489     6                    -74.8411    44133         
   1886   439   -27518.3634    19                    -74.8411    46681         
   2289   542    -8298.6668   190                    -74.8411    83274         
*  2529   614      integral     0    -5350.3223      -74.8411    99451   98.60%
   2957   412        cutoff          -5350.3223      -74.8411   171457   98.60%
   3403   335        cutoff          -5350.3223      -74.8411   203694   98.60%
   4041   183    -1073.8945   169    -5350.3223      -74.8411   235829   98.60%
   7437  2211      -74.8411   158    -5350.3223      -74.8411   301916   98.60%
Elapsed time = 23.98 sec. (7566.12 ticks, tree = 15.13 MB, solutions = 5)
*  8550  2592      integral     0    -5163.0881      -74.8411   302536   98.55%
*  8598  2478      integral     0    -5065.2958      -74.8411   302410   98.52%
*  8972  3275      integral     0    -4890.5422      -74.8411   303602   98.47%
*  8973  3099      integral     0     -608.1542      -74.8411   303339   87.69%
   9053  1647    infeasible           -608.1542      -75.7448   311099   87.55%
  10400    71     -112.7574     2     -608.1542      -77.5349   312920   87.25%
  14371   860     -235.7716     5     -608.1542      -79.4830   323589   86.93%
  19514  5326     -546.8222     9     -608.1542     -109.3984   369789   82.01%
  25059  6924     -317.7490    11     -608.1542     -146.0889   393152   75.98%
  29350  7447     -237.3495    10     -608.1542     -208.7289   401167   65.68%
  33530  9247     -483.2008     6     -608.1542     -217.3947   433400   64.25%
  39366  9978     -401.4378    10     -608.1542     -232.9553   454655   61.69%
  45362 11676     -512.4001    10     -608.1542     -255.4915   588721   57.99%
Elapsed time = 74.03 sec. (19406.85 ticks, tree = 68.03 MB, solutions = 7)
  51519 11504     -578.0043     8     -608.1542     -322.4171   606825   46.98%
  57543 11620     -323.4142    11     -608.1542     -351.1109   597405   42.27%
  60251 10386     -594.6544     8     -608.1542     -351.1109   631900   42.27%
  60302  9904    infeasible           -608.1542     -375.6028   641426   38.24%

Implied bound cuts applied:  11
Flow cuts applied:  5
Mixed integer rounding cuts applied:  11
Gomory fractional cuts applied:  8

Root node processing (before b&c):
  Real time             =    6.59 sec. (4508.99 ticks)
Parallel b&c, 32 threads:
  Real time             =   78.36 sec. (19842.28 ticks)
  Sync time (average)   =    3.63 sec.
  Wait time (average)   =    0.27 sec.
                          ------------
Total (root+branch&cut) =   84.95 sec. (24351.26 ticks)

Solution pool: 7 solutions saved.

MIP - Integer optimal solution:  Objective = -6.0815424256e+02
Solution time =   84.97 sec.  Iterations = 651299  Nodes = 61117
Deterministic time = 24351.42 ticks  (286.59 ticks/sec)

CPLEX> Incumbent solution written to file 'C:\Users\llavin\Desktop\test919\logs\tmpe7si8hdp.cplex.sol'.
CPLEX> NOTE: no warmstart specified for MIP iteration, default behavior is true
NOTE: resolving with all competitive generators using storage-only solution to warmstart
Solving...

Welcome to IBM(R) ILOG(R) CPLEX(R) Interactive Optimizer 12.9.0.0
  with Simplex, Mixed Integer & Barrier Optimizers
5725-A06 5725-A29 5724-Y48 5724-Y49 5724-Y54 5724-Y55 5655-Y21
Copyright IBM Corp. 1988, 2019.  All Rights Reserved.

Type 'help' for a list of available commands.
Type 'help' followed by a command name for more
information on commands.

CPLEX> Logfile 'cplex.log' closed.
Logfile 'C:\Users\llavin\Desktop\test919\logs\tmp13zopt7d.cplex.log' open.
CPLEX> New value for parallel optimization mode: -1
CPLEX> New value for mixed integer optimality gap tolerance: 0.01
CPLEX> New value for integrality tolerance: 1e-09
CPLEX> New value for feasibility tolerance: 0.01
CPLEX> New value for deterministic time limit in ticks: 100000
CPLEX> Problem 'C:\Users\llavin\Desktop\test919\logs\tmp3o56tvjh.pyomo.lp' read.
Read time = 0.22 sec. (13.88 ticks)
CPLEX> MIP start file 'C:\Users\llavin\Desktop\test919\logs\tmpg7wtkh2n.cplex.mst' read.
CPLEX> Problem name         : C:\Users\llavin\Desktop\test919\logs\tmp3o56tvjh.pyomo.lp
Objective sense      : Maximize
Variables            :   54041  [Nneg: 1,  Box: 22526,  Free: 4416,
                                 Binary: 27098]
Objective nonzeros   :    9676
Linear constraints   :  122164  [Less: 40983,  Greater: 58612,  Equal: 22569]
  Nonzeros           :  288505
  RHS nonzeros       :   66982

Variables            : Min LB: -5000.000        Max UB: 1000000.       
Objective nonzeros   : Min   : 0.07500000       Max   : 731.8583       
Linear constraints   :
  Nonzeros           : Min   : 0.07500000       Max   : 1000000.       
  RHS nonzeros       : Min   : 0.07500000       Max   : 1000000.       
CPLEX> CPXPARAM_Parallel                                -1
CPXPARAM_Simplex_Tolerances_Feasibility          0.01
CPXPARAM_DetTimeLimit                            100000
CPXPARAM_MIP_Tolerances_MIPGap                   0.01
CPXPARAM_MIP_Tolerances_Integrality              1.0000000000000001e-09
Warning:  No solution found from 1 MIP starts.
Retaining values of one MIP start for possible repair.
Tried aggregator 3 times.
MIP Presolve eliminated 88113 rows and 19689 columns.
MIP Presolve added 3376 rows and 0 columns.
MIP Presolve modified 24476 coefficients.
Aggregator did 12846 substitutions.
Reduced MIP has 24581 rows, 20950 columns, and 68870 nonzeros.
Reduced MIP has 8281 binaries, 0 generals, 0 SOSs, and 0 indicators.
Presolve time = 0.28 sec. (171.79 ticks)
Probing fixed 434 vars, tightened 2916 bounds.
Probing time = 1.39 sec. (921.94 ticks)
Tried aggregator 2 times.
MIP Presolve eliminated 967 rows and 870 columns.
MIP Presolve modified 2190 coefficients.
Aggregator did 59 substitutions.
Reduced MIP has 23555 rows, 20021 columns, and 65879 nonzeros.
Reduced MIP has 7847 binaries, 0 generals, 0 SOSs, and 0 indicators.
Presolve time = 0.11 sec. (67.03 ticks)
Probing fixed 0 vars, tightened 1 bounds.
Probing time = 0.05 sec. (19.90 ticks)
Clique table members: 6456.
MIP emphasis: balance optimality and feasibility.
MIP search method: dynamic search.
Parallel mode: opportunistic, using up to 32 threads.
Root relaxation solution time = 0.34 sec. (278.79 ticks)

        Nodes                                         Cuts/
   Node  Left     Objective  IInf  Best Integer    Best Bound    ItCnt     Gap

      0     0    51347.9650  1773                  51347.9650     6849         
      0     0    51048.5496   683                   Cuts: 735     7213         
      0     0    51007.2260   557                   Cuts: 485     7435         
      0     0    50963.8517   461                   Cuts: 318     7586         
      0     0    50962.9758   403                   Cuts: 141     7652         
      0     0    50962.9758   371                   Cuts: 118     7692         
      0     0    50962.9758   359                    Cuts: 60     7710         
      0     0    50962.9758   356                    Cuts: 26     7719         
      0     0    50962.9758   348                    Cuts: 30     7726         
      0     0    50962.9758   343                    Cuts: 29     7731         
Repair heuristic found nothing.
      0    25    44823.2183   325                    Cuts: 17     8127         
Elapsed time = 10.58 sec. (5885.91 ticks, tree = 0.02 MB, solutions = 0)
    515   199    45272.7350   308                  50585.0987     9755         
    901   630    43838.5298   268                  50585.0987    13113         
   1481   919    31168.4726   267                  50585.0987    16247         
   2319  1472    21447.6209   238                  50585.0987    19746         
   3675  2431    19083.0298   255                  50585.0987    21686         
   4857  2749    47837.0748   316                  50585.0987    21852         
   5945  4681    32129.0552   226                  50585.0987    22296         
   6920  5367    14152.6212   216                  50585.0987    22425         
*  7135+ 1523                        42631.0288    50585.0987            18.66%
*  9050  6867      integral     0    42698.4978    50585.0987    26161   18.47%
   9081  1642    infeasible          42698.4978    50585.0987    37897   18.47%
Elapsed time = 31.80 sec. (12774.70 ticks, tree = 13.89 MB, solutions = 4)
  10375  1184    50000.7980    88    42698.4978    50585.0987    44114   18.47%
* 11172  1266      integral     0    50037.9128    50585.0987    44663    1.09%
  11511  1418    50001.5676    41    50037.9128    50585.0987    45532    1.09%
* 12959  1605      integral     0    50037.9128    50585.0987    46707    1.09%
  13511  1713    49312.5881    82    50037.9128    50585.0987    47443    1.09%

GUB cover cuts applied:  1
Clique cuts applied:  20
Cover cuts applied:  1
Implied bound cuts applied:  12
Flow cuts applied:  419
Mixed integer rounding cuts applied:  27
Gomory fractional cuts applied:  36

Root node processing (before b&c):
  Real time             =    8.97 sec. (5860.52 ticks)
Parallel b&c, 32 threads:
  Real time             =   32.92 sec. (9953.52 ticks)
  Sync time (average)   =    2.15 sec.
  Wait time (average)   =    0.24 sec.
                          ------------
Total (root+branch&cut) =   41.89 sec. (15814.04 ticks)

Solution pool: 10 solutions saved.

MIP - Integer optimal, tolerance (0.01/1e-06):  Objective =  5.0037912780e+04
Current MIP best bound =  5.0448307973e+04 (gap = 410.395, 0.82%)
Solution time =   41.91 sec.  Iterations = 55287  Nodes = 13543 (138)
Deterministic time = 15814.20 ticks  (377.37 ticks/sec)

CPLEX> Incumbent solution written to file 'C:\Users\llavin\Desktop\test919\logs\tmpbxrf9_7q.cplex.sol'.
CPLEX> Exporting results... 
